benchmarks/bfuzz0/2975524272252833158829443204481348010434.smt2
(set-logic QF_FP)
(declare-const x0 (_ FloatingPoint 8 24))
(declare-const x1 (_ FloatingPoint 8 24))
(declare-const x2 (_ FloatingPoint 8 24))
(declare-const x3 (_ FloatingPoint 8 24))
(declare-const x4 (_ FloatingPoint 8 24))
(declare-const x5 (_ FloatingPoint 8 24))
(declare-const x6 (_ FloatingPoint 8 24))
(declare-const x7 (_ FloatingPoint 8 24))
(assert (fp.geq (fp.mul RNE (fp.mul RNE (fp.sub RNE x4 x0) (fp.neg x0)) (fp.div RNE (fp.add RNE x6 x7) (fp.mul RNE x7 x7))) (fp.mul RNE (fp.mul RNE (fp.mul RNE x5 x2) (fp.sub RNE x1 x4)) (fp.mul RNE (fp.neg x7) (fp.mul RNE x3 x4)))))
(assert (fp.gt (fp.add RNE (fp.mul RNE (fp.sub RNE x7 x5) (fp.sub RNE x5 x7)) (fp.sub RNE (fp.sub RNE x7 x2) (fp.sub RNE x4 x2))) (fp.neg (fp.div RNE (fp.neg x5) (fp.neg x6)))))
(check-sat)
