db/data/2975524272252833158829443204481348010434.z3.out
sat
-------------------
108.000497042
